200
1000
210
209
208
208
208
207
207
207
206
205
205
204
204
204
204
203
202
202
202
201
201
201
201
200
200
199
198
197
196
194
194
192
191
191
188
188
188
188
188
187
187
186
186
182
181
181
181
180
179
177
176
176
173
172
172
172
171
168
168
167
167
166
166
166
165
165
164
163
163
163
159
159
158
158
158
158
157
156
156
154
152
152
151
150
150
149
149
149
148
147
147
147
146
146
145
142
142
141
140
140
140
140
139
139
138
138
137
136
135
135
134
134
133
133
132
131
131
129
127
127
127
127
126
123
122
119
119
119
119
119
119
118
118
117
116
115
115
115
115
115
114
114
114
113
112
111
111
110
110
109
106
106
105
105
105
103
103
103
101
101
101
100
95
94
94
92
91
90
90
89
89
89
89
88
87
87
86
85
85
85
85
84
83
83
82
82
80
79
79
77
76
75
75
75
74
74
74
74
74
72
